100
128
16
32
31
10
12
17
51
28
24
45
40
48
51
18
43
24
52
30
10
46
63
9
13
36
33
45
13
28
22
10
21
41
56
38
38
1
30
56
28
58
26
52
33
22
36
30
13
56
46
31
16
26
47
64
19
16
40
18
32
52
24
16
16
55
20
22
22
34
13
27
53
37
40
28
14
23
25
29
41
13
16
12
6
37
47
28
16
26
16
29
33
26
24
43
32
12
49
28
32
45